848
9
246740
104850
 0 1 1 18 14  3 0 53 0
 0 1 1 229 195  15 0 18 8 46 45 17 84 5 93 85 98 92 95 94 0
 0 1 1 229 198  15 0 99 61 16 86 38 14 44 91 100 37 59 96 6 0
 0 1 1 230 153  15 0 13 97 87 42 43 15 57 41 22 74 73 2 58 0
 0 1 1 227 198  14 0 40 21 72 75 56 23 67 39 25 55 4 26 0
 0 1 1 229 187  15 0 12 68 80 54 24 29 34 78 79 3 77 76 28 0
 0 1 1 228 163  13 0 1 51 20 66 71 65 35 9 81 33 50 0
 0 1 1 230 167  14 0 27 69 70 30 32 90 63 64 11 62 10 31 0
 0 1 1 228 183  14 0 89 60 83 82 48 47 36 49 19 7 88 52 0
